certificates/rado_a6_c292_N48.drat
-48 0
44 0
-16 0
12 0
20 0
-40 0
36 0
-8 0
-46 0
4 0
24 0
42 0
30 0
32 0
0
